Data path: /scratch/opt/lxu/CFLG/benchmarks/random_B
Instance: r_25_0.2_58.txt
Result path: /scratch/opt/lxu/CFLG/results/random_B
Solver: Gurobi
Time limit: 3600
Formulation: LEVFP
Cover: Large
julia --project=. src/main.jl /scratch/opt/lxu/CFLG/benchmarks/random_B r_25_0.2_58.txt /scratch/opt/lxu/CFLG/results/random_B Gurobi 3600 LEVFP Large
/scratch/opt/lxu/CFLG/benchmarks/random_B Gurobi 3600.0 /scratch/opt/lxu/CFLG/results/random_B r_25_0.2_58.txt LEVFP Large
/scratch/opt/lxu/CFLG/benchmarks/random_B/r_25_0.2_58.txt

 read graph
data loaded

problem_graph/original graph: node: 25/25 edge: 58/58 dlt: 1.3662485762083236 break_avg_len: 0.6831242881041618 break_max_len: 0.9946460943203358elapsed CPU time: 0.029353 seconds
Set parameter TokenServer to value "solice01.zib.de"
Set parameter Threads to value 1
Set parameter OutputFlag to value 1
Set parameter MIPGap to value 0.0001
Set parameter MIPGapAbs to value 1
Set parameter TimeLimit to value 3599.970647

 model loaded

Gurobi Optimizer version 12.0.1 build v12.0.1rc0 (linux64 - "Debian GNU/Linux 12 (bookworm)")

CPU model: Intel(R) Xeon(R) Gold 5222 CPU @ 3.80GHz, instruction set [SSE2|AVX|AVX2|AVX512]
Thread count: 8 physical cores, 16 logical processors, using up to 1 threads

Non-default parameters:
TimeLimit  3599.970647
MIPGapAbs  1
Threads  1

Optimize a model with 5054 rows, 2226 columns and 14446 nonzeros
Model fingerprint: 0x8d323313
Variable types: 83 continuous, 2143 integer (2143 binary)
Coefficient statistics:
  Matrix range     [1e-06, 2e+00]
  Objective range  [1e+00, 1e+00]
  Bounds range     [3e-01, 1e+00]
  RHS range        [3e-01, 6e+00]
Found heuristic solution: objective 17.0000000
Presolve removed 1237 rows and 22 columns
Presolve time: 0.06s
Presolved: 3817 rows, 2204 columns, 13132 nonzeros
Variable types: 83 continuous, 2121 integer (2121 binary)

Root relaxation: objective 1.500000e+00, 1754 iterations, 0.06 seconds (0.10 work units)

    Nodes    |    Current Node    |     Objective Bounds      |     Work
 Expl Unexpl |  Obj  Depth IntInf | Incumbent    BestBd   Gap | It/Node Time

     0     0    1.50000    0   60   17.00000    1.50000  91.2%     -    0s
H    0     0                      16.0000000    1.50000  90.6%     -    0s
H    0     0                      15.0000000    1.50000  90.0%     -    0s
H    0     0                      12.0000000    1.50000  87.5%     -    0s
H    0     0                      11.0000000    1.50000  86.4%     -    0s
H    0     0                      10.0000000    1.50000  85.0%     -    0s
H    0     0                       9.0000000    1.50000  83.3%     -    0s
     0     0    1.50000    0  236    9.00000    1.50000  83.3%     -    0s
H    0     0                       6.0000000    1.50000  75.0%     -    0s
H    0     0                       4.0000000    1.50000  62.5%     -    0s
     0     0    1.50000    0  267    4.00000    1.50000  62.5%     -    0s
     0     0    1.56800    0  315    4.00000    1.56800  60.8%     -    0s
     0     0    1.57366    0  300    4.00000    1.57366  60.7%     -    0s
     0     0    1.65617    0  381    4.00000    1.65617  58.6%     -    0s
     0     0    1.69405    0  367    4.00000    1.69405  57.6%     -    1s
     0     0    1.76580    0  286    4.00000    1.76580  55.9%     -    1s
     0     0    1.77422    0  318    4.00000    1.77422  55.6%     -    1s
     0     0    1.81381    0  312    4.00000    1.81381  54.7%     -    1s
     0     0    1.82274    0  284    4.00000    1.82274  54.4%     -    1s
     0     0    1.85484    0  280    4.00000    1.85484  53.6%     -    1s
     0     0    1.85895    0  312    4.00000    1.85895  53.5%     -    1s
     0     0    1.85895    0  301    4.00000    1.85895  53.5%     -    1s
     0     0    1.85895    0  301    4.00000    1.85895  53.5%     -    1s
     0     0    1.86480    0  267    4.00000    1.86480  53.4%     -    1s
     0     0    1.86554    0  284    4.00000    1.86554  53.4%     -    1s
     0     0    1.86578    0  318    4.00000    1.86578  53.4%     -    1s
     0     0    1.86702    0  319    4.00000    1.86702  53.3%     -    1s
     0     0    1.86794    0  317    4.00000    1.86794  53.3%     -    1s
     0     0    1.88814    0  306    4.00000    1.88814  52.8%     -    1s
     0     0    1.88814    0  307    4.00000    1.88814  52.8%     -    1s
     0     0    1.88814    0  273    4.00000    1.88814  52.8%     -    1s
     0     0    1.91095    0  276    4.00000    1.91095  52.2%     -    1s
     0     0    1.91095    0  312    4.00000    1.91095  52.2%     -    1s
     0     0    1.91095    0  312    4.00000    1.91095  52.2%     -    1s
     0     0    1.91095    0  315    4.00000    1.91095  52.2%     -    1s
     0     0    1.91095    0  305    4.00000    1.91095  52.2%     -    1s
     0     0    1.91095    0  324    4.00000    1.91095  52.2%     -    1s
     0     0    1.91095    0  325    4.00000    1.91095  52.2%     -    1s
     0     0    1.91095    0  306    4.00000    1.91095  52.2%     -    1s
     0     0    2.00000    0  240    4.00000    2.00000  50.0%     -    1s
     0     0    2.00000    0  213    4.00000    2.00000  50.0%     -    1s
     0     0    2.00000    0  266    4.00000    2.00000  50.0%     -    2s
     0     0    2.00000    0  230    4.00000    2.00000  50.0%     -    2s
     0     0    2.00000    0  133    4.00000    2.00000  50.0%     -    2s
     0     0    2.00000    0  325    4.00000    2.00000  50.0%     -    2s
     0     0    2.00000    0  196    4.00000    2.00000  50.0%     -    2s
     0     0    2.00000    0  143    4.00000    2.00000  50.0%     -    2s
     0     2    2.00000    0  141    4.00000    2.00000  50.0%     -    2s
   243   145     cutoff   14         4.00000    2.06843  48.3%   128    5s
   771   393    2.86216   18  180    4.00000    2.22847  44.3%  97.9   10s
   778   398    2.50000   19  284    4.00000    2.22847  44.3%  97.0   15s
   786   405    2.22847   13  192    4.00000    2.22847  44.3%   150   20s
   862   409    2.66667   14   86    4.00000    2.22847  44.3%   161   25s
   972   401    3.00000   30   66    4.00000    2.22847  44.3%   169   30s
  1068   395    2.55556   34  136    4.00000    2.28829  42.8%   173   35s
  1267   383    2.38074   21  139    4.00000    2.36957  40.8%   166   40s
  1527   344    3.00000   28   50    4.00000    2.50000  37.5%   159   45s
  1825   323    2.66986   31  101    4.00000    2.60000  35.0%   151   50s
  2126   334    3.00000   42   59    4.00000    2.70452  32.4%   144   55s

Cutting planes:
  Cover: 55
  Implied bound: 15
  Projected implied bound: 2
  Clique: 15
  MIR: 28
  StrongCG: 2
  Flow cover: 43
  GUB cover: 29
  Zero half: 4
  RLT: 15
  Relax-and-lift: 42
  BQP: 5

Explored 2394 nodes (355846 simplex iterations) in 58.34 seconds (79.08 work units)
Thread count was 1 (of 16 available processors)

Solution count 10: 4 4 6 ... 16

Optimal solution found (tolerance 1.00e-04)
Best objective 4.000000000000e+00, best bound 3.000000000000e+00, gap 25.0000%

User-callback calls 21335, time in user-callback 0.02 sec
Stat(MathOptInterface.OPTIMAL, 4.0, 3.0000000000000004, 0.2499999999999999, 0.029353, 58.339998960494995, 2394, Main.CFLG.LEVFP, "", #undef)
